 &CONTROL
    prefix = 'alo3'
    calculation = 'relax'
    ! outdir = 'temporary directory for large files'
    pseudo_dir = '../pseudo',
    verbosity = 'high'
   ! restart_mode = 'restart'
    nstep = 100
 /

 &SYSTEM    
    ibrav = 0 ,
    nat =  30,
    ntyp = 2, 
    ecutwfc = 29.4,
    occupations = 'smearing',
    smearing = 'methfessel-paxton',
    nspin = 2,
    tot_magnetization = 2
    degauss = 0.014
    input_dft = 'PBE'
 /
&ELECTRONS
    diagonalization = 'david',  
    conv_thr = 1.0d-8,
    electron_maxstep = 200,
/

&IONS
    ion_dynamics = 'bfgs',
    
/

CELL_PARAMETERS angstrom
        5.71191              0.0000000000         0.0000000000
        0.0000000000         4.94666              0.0000000000
        0.0000000000         0.0000000000         40.000000000



ATOMIC_SPECIES
   Al  26.98 Al.pbe-n-kjpaw_psl.1.0.0.UPF
   O   15.99 O.pbe-n-kjpaw_psl.1.0.0.UPF
ATOMIC_POSITIONS angstrom
Al  0.00000   4.12221  25.49134   1   1   0
Al  2.85596   4.12221  25.49134   1   1   0
Al  1.42798   1.64888  25.49134   1   1   0
Al  4.28393   1.64888  25.49134   1   1   0
Al  7.13989   0.00000  23.15947   1   1   1
Al  2.85596   2.47333  23.15947   1   1   1
Al  5.71191   0.82444  20.82759   1   1   1
Al  5.71191   2.47333  23.15947   1   1   1
Al  4.28393   0.00000  23.15947   1   1   1
Al  7.13989   0.00000  16.16383   0   0   0
Al  4.28393   1.64888  11.50008   0   0   0
Al  5.71191   0.82444  13.83196   0   0   0
Al  2.85596   0.82444  20.82759   1   1   1
Al  4.28393   3.29777  20.82759   1   1   1
Al  1.42798   3.29777  20.82759   1   1   1
Al  1.42798   3.29777  13.83196   0   0   0
Al  4.28393   1.64888  18.49571   0   0   0
Al  0.00000   4.12221  18.49571   0   0   0
Al  0.00000   4.12221  11.50008   0   0   0
Al  2.85596   2.47333  16.16383   0   0   0
Al  2.85596   4.12221  18.49571   0   0   0
Al  2.85596   4.12221  11.50008   0   0   0
Al  2.85596   0.82444  13.83196   0   0   0
Al  5.71191   2.47333  16.16383   0   0   0
Al  1.42798   1.64888  18.49571   0   0   0
Al  1.42798   1.64888  11.50008   0   0   0
Al  4.28393   3.29777  13.83196   0   0   0
Al  4.28393   0.00000  16.16383   0   0   0
O   4.83237   1.32216  28.49134   1   1   0
O   3.74037   1.97116  28.49134   1   1   0
K_POINTS automatic
   4 4 1 0 0 0

#O   5.39326936 1.00840214  27.89134  1   1   0
#O   3.17459064 2.28935786  27.89134  1   1   0

